c status 10 1469388076951
c status 8 1469388076951
c status 7 1469388076953
s td 18 7 24
b 1 1 4 5 2
b 2 4 5 3 17 2
b 3 16 10 3 8
b 4 10 5 3 20 8
b 5 5 3 20 12 8 17 2
b 6 3 24 20 12 8 17 2
b 7 6 11 14 2
b 8 11 14 21 17 2
b 9 22 23 21 12
b 10 23 14 21 24 12
b 11 14 21 24 12 8 17 2
b 12 21 24 20 12 8 17 2
b 13 19 9 18 20
b 14 9 18 15 20 17
b 15 7 13 15 12
b 16 13 18 15 12 2
b 17 18 15 20 12 8 17 2
b 18 15 24 20 12 8 17 2
1 2
2 5
5 6
6 12
6 18
18 17
12 11
5 4
17 14
11 8
11 10
17 16
4 3
14 13
8 7
10 9
16 15
